NAME:  test1
TYPE: AGTSP
COMMENT: gtsp tours
DIMENSION:  73
GTSP_SETS: 19
EDGE_WEIGHT_TYPE: EXPLICIT
EDGE_WEIGHT_FORMAT: FULL_MATRIX 
EDGE_WEIGHT_SECTION
999999	0	999999	999999	38017	38017	38017	38009	38023	38023	38023	38015	38025	38025	38025	38017	38029	38029	38029	38021	38014	38014	38014	38006	38022	38022	38022	38014	38011	38011	38011	38003	38049	38049	999999	999999	38015	38015	38015	38007	38045	38045	999999	999999	38033	38033	999999	999999	38006	38006	37998	999999	38007	38007	37999	999999	38026	38026	38026	38018	38022	38022	38022	38014	38051	38051	999999	999999	37990
999999	999999	0	999999	38017	38017	38017	999999	38023	38023	38023	999999	38025	38025	38025	999999	38029	38029	38029	999999	38014	38014	38014	999999	38022	38022	38022	999999	38011	38011	38011	999999	38049	38049	38049	999999	38015	38015	38015	999999	38045	38045	38045	999999	38033	38033	38033	999999	38006	38006	38006	37998	38007	38007	38007	37999	38026	38026	38026	999999	38022	38022	38022	999999	38051	38051	38051	999999	37990
999999	999999	999999	0	38017	38017	38017	38017	38023	38023	38023	38023	38025	38025	38025	38025	38029	38029	38029	38029	38014	38014	38014	38014	38022	38022	38022	38022	38011	38011	38011	38011	38049	38049	38049	38049	38015	38015	38015	38015	38045	38045	38045	38045	38033	38033	38033	38033	38006	38006	38006	38006	38007	38007	38007	38007	38026	38026	38026	38026	38022	38022	38022	38022	38051	38051	38051	38051	37990
0	999999	999999	999999	38017	38017	38009	999999	38023	38023	38015	999999	38025	38025	38017	999999	38029	38029	38021	999999	38014	38014	38006	999999	38022	38022	38014	999999	38011	38011	38003	999999	38049	38049	38049	38041	38015	38015	38007	999999	38045	38045	38045	38037	38033	38033	38033	38025	38006	37998	999999	999999	38007	37999	999999	999999	38026	38026	38018	999999	38022	38022	38014	999999	38051	38051	38051	38043	37990
38017	38017	38017	38009	999999	0	999999	999999	37996	37996	37988	999999	38001	38001	37993	999999	38017	38017	38017	38009	38005	38005	37997	999999	38023	38023	38023	38015	37996	37996	37988	999999	38036	38036	999999	999999	37995	37995	37987	999999	38020	38020	38020	38012	38013	38013	38013	38005	38025	38025	38025	38017	38005	38005	37997	999999	38037	38037	999999	999999	38035	38035	999999	999999	38036	38036	999999	999999	38017
38017	38017	38017	999999	999999	999999	0	999999	37996	37996	37996	37988	38001	38001	38001	37993	38017	38017	38017	999999	38005	38005	38005	37997	38023	38023	38023	999999	37996	37996	37996	37988	38036	38036	38036	999999	37995	37995	37995	37987	38020	38020	38020	999999	38013	38013	38013	999999	38025	38025	38025	999999	38005	38005	38005	37997	38037	38037	38037	999999	38035	38035	38035	999999	38036	38036	38036	999999	38017
38017	38017	38017	38017	999999	999999	999999	0	37996	37996	37996	37996	38001	38001	38001	38001	38017	38017	38017	38017	38005	38005	38005	38005	38023	38023	38023	38023	37996	37996	37996	37996	38036	38036	38036	38036	37995	37995	37995	37995	38020	38020	38020	38020	38013	38013	38013	38013	38025	38025	38025	38025	38005	38005	38005	38005	38037	38037	38037	38037	38035	38035	38035	38035	38036	38036	38036	38036	38017
38017	38017	38009	999999	0	999999	999999	999999	37996	37988	999999	999999	38001	37993	999999	999999	38017	38017	38009	999999	38005	37997	999999	999999	38023	38023	38015	999999	37996	37988	999999	999999	38036	38036	38036	38028	37995	37987	999999	999999	38020	38020	38012	999999	38013	38013	38005	999999	38025	38025	38017	999999	38005	37997	999999	999999	38037	38037	38037	38029	38035	38035	38035	38027	38036	38036	38036	38028	38017
38023	38023	38023	38015	37996	37996	37988	999999	999999	0	999999	999999	37994	37994	37986	999999	38013	38013	38013	38005	38005	38005	37997	999999	38022	38022	38022	38014	38003	38003	37995	999999	38030	38030	38030	38022	38002	38002	37994	999999	38013	38013	38013	38005	38006	38006	37998	999999	38028	38028	38028	38020	38007	38007	37999	999999	38037	38037	999999	999999	38036	38036	999999	999999	38030	38030	38030	38022	38022
38023	38023	38023	999999	37996	37996	37996	37988	999999	999999	0	999999	37994	37994	37994	37986	38013	38013	38013	999999	38005	38005	38005	37997	38022	38022	38022	999999	38003	38003	38003	37995	38030	38030	38030	999999	38002	38002	38002	37994	38013	38013	38013	999999	38006	38006	38006	37998	38028	38028	38028	999999	38007	38007	38007	37999	38037	38037	38037	999999	38036	38036	38036	999999	38030	38030	38030	999999	38022
38023	38023	38023	38023	37996	37996	37996	37996	999999	999999	999999	0	37994	37994	37994	37994	38013	38013	38013	38013	38005	38005	38005	38005	38022	38022	38022	38022	38003	38003	38003	38003	38030	38030	38030	38030	38002	38002	38002	38002	38013	38013	38013	38013	38006	38006	38006	38006	38028	38028	38028	38028	38007	38007	38007	38007	38037	38037	38037	38037	38036	38036	38036	38036	38030	38030	38030	38030	38022
38023	38023	38015	999999	37996	37988	999999	999999	0	999999	999999	999999	37994	37986	999999	999999	38013	38013	38005	999999	38005	37997	999999	999999	38022	38022	38014	999999	38003	37995	999999	999999	38030	38030	38022	999999	38002	37994	999999	999999	38013	38013	38005	999999	38006	37998	999999	999999	38028	38028	38020	999999	38007	37999	999999	999999	38037	38037	38037	38029	38036	38036	38036	38028	38030	38030	38022	999999	38022
38025	38025	38025	38017	38001	38001	37993	999999	37994	37994	37986	999999	999999	0	999999	999999	38008	38008	38000	999999	38003	38003	37995	999999	38019	38019	38019	38011	38008	38008	38000	999999	38024	38024	38024	38016	38007	38007	37999	999999	38009	38009	38001	999999	38001	38001	37993	999999	38028	38028	38028	38020	38008	38008	38000	999999	38034	38034	999999	999999	38034	38034	999999	999999	38024	38024	38024	38016	38024
38025	38025	38025	999999	38001	38001	38001	37993	37994	37994	37994	37986	999999	999999	0	999999	38008	38008	38008	38000	38003	38003	38003	37995	38019	38019	38019	999999	38008	38008	38008	38000	38024	38024	38024	999999	38007	38007	38007	37999	38009	38009	38009	38001	38001	38001	38001	37993	38028	38028	38028	999999	38008	38008	38008	38000	38034	38034	38034	999999	38034	38034	38034	999999	38024	38024	38024	999999	38024
38025	38025	38025	38025	38001	38001	38001	38001	37994	37994	37994	37994	999999	999999	999999	0	38008	38008	38008	38008	38003	38003	38003	38003	38019	38019	38019	38019	38008	38008	38008	38008	38024	38024	38024	38024	38007	38007	38007	38007	38009	38009	38009	38009	38001	38001	38001	38001	38028	38028	38028	38028	38008	38008	38008	38008	38034	38034	38034	38034	38034	38034	38034	38034	38024	38024	38024	38024	38024
38025	38025	38017	999999	38001	37993	999999	999999	37994	37986	999999	999999	0	999999	999999	999999	38008	38000	999999	999999	38003	37995	999999	999999	38019	38019	38011	999999	38008	38000	999999	999999	38024	38024	38016	999999	38007	37999	999999	999999	38009	38001	999999	999999	38001	37993	999999	999999	38028	38028	38020	999999	38008	38000	999999	999999	38034	38034	38034	38026	38034	38034	38034	38026	38024	38024	38016	999999	38024
38029	38029	38029	38021	38017	38017	38017	38009	38013	38013	38013	38005	38008	38008	38000	999999	999999	0	999999	999999	38005	38005	37997	999999	38005	38005	37997	999999	38021	38021	38021	38013	38009	38009	38001	999999	38022	38022	38022	38014	38014	38014	38014	38006	38002	38002	37994	999999	38024	38024	38024	38016	38012	38012	38012	38004	38020	38020	38020	38012	38022	38022	38022	38014	38011	38011	38011	38003	38028
38029	38029	38029	999999	38017	38017	38017	999999	38013	38013	38013	999999	38008	38008	38008	38000	999999	999999	0	999999	38005	38005	38005	37997	38005	38005	38005	37997	38021	38021	38021	999999	38009	38009	38009	38001	38022	38022	38022	999999	38014	38014	38014	999999	38002	38002	38002	37994	38024	38024	38024	999999	38012	38012	38012	999999	38020	38020	38020	999999	38022	38022	38022	999999	38011	38011	38011	999999	38028
38029	38029	38029	38029	38017	38017	38017	38017	38013	38013	38013	38013	38008	38008	38008	38008	999999	999999	999999	0	38005	38005	38005	38005	38005	38005	38005	38005	38021	38021	38021	38021	38009	38009	38009	38009	38022	38022	38022	38022	38014	38014	38014	38014	38002	38002	38002	38002	38024	38024	38024	38024	38012	38012	38012	38012	38020	38020	38020	38020	38022	38022	38022	38022	38011	38011	38011	38011	38028
38029	38029	38021	999999	38017	38017	38009	999999	38013	38013	38005	999999	38008	38000	999999	999999	0	999999	999999	999999	38005	37997	999999	999999	38005	37997	999999	999999	38021	38021	38013	999999	38009	38001	999999	999999	38022	38022	38014	999999	38014	38014	38006	999999	38002	37994	999999	999999	38024	38024	38016	999999	38012	38012	38004	999999	38020	38020	38012	999999	38022	38022	38014	999999	38011	38011	38003	999999	38028
38014	38014	38014	38006	38005	38005	37997	999999	38005	38005	37997	999999	38003	38003	37995	999999	38005	38005	37997	999999	999999	0	999999	999999	38008	38008	38000	999999	38006	38006	37998	999999	38025	38025	38025	38017	38008	38008	38000	999999	38021	38021	38021	38013	38008	38008	38000	999999	38014	38014	38014	38006	37996	37996	37988	999999	38021	38021	38021	38013	38020	38020	38020	38012	38027	38027	38027	38019	38013
38014	38014	38014	999999	38005	38005	38005	37997	38005	38005	38005	37997	38003	38003	38003	37995	38005	38005	38005	37997	999999	999999	0	999999	38008	38008	38008	38000	38006	38006	38006	37998	38025	38025	38025	999999	38008	38008	38008	38000	38021	38021	38021	999999	38008	38008	38008	38000	38014	38014	38014	999999	37996	37996	37996	37988	38021	38021	38021	999999	38020	38020	38020	999999	38027	38027	38027	999999	38013
38014	38014	38014	38014	38005	38005	38005	38005	38005	38005	38005	38005	38003	38003	38003	38003	38005	38005	38005	38005	999999	999999	999999	0	38008	38008	38008	38008	38006	38006	38006	38006	38025	38025	38025	38025	38008	38008	38008	38008	38021	38021	38021	38021	38008	38008	38008	38008	38014	38014	38014	38014	37996	37996	37996	37996	38021	38021	38021	38021	38020	38020	38020	38020	38027	38027	38027	38027	38013
38014	38014	38006	999999	38005	37997	999999	999999	38005	37997	999999	999999	38003	37995	999999	999999	38005	37997	999999	999999	0	999999	999999	999999	38008	38000	999999	999999	38006	37998	999999	999999	38025	38025	38017	999999	38008	38000	999999	999999	38021	38021	38013	999999	38008	38000	999999	999999	38014	38014	38006	999999	37996	37988	999999	999999	38021	38021	38013	999999	38020	38020	38012	999999	38027	38027	38019	999999	38013
38022	38022	38022	38014	38023	38023	38023	38015	38022	38022	38022	38014	38019	38019	38019	38011	38005	38005	37997	999999	38008	38008	38000	999999	999999	0	999999	999999	38024	38024	38024	38016	38019	38019	38019	38011	38026	38026	38026	38018	38030	38030	38030	38022	38017	38017	38017	38009	38011	38011	38011	38003	38011	38011	38011	38003	38005	38005	37997	999999	38006	38006	37998	999999	38023	38023	38023	38015	38021
38022	38022	38022	999999	38023	38023	38023	999999	38022	38022	38022	999999	38019	38019	38019	999999	38005	38005	38005	37997	38008	38008	38008	38000	999999	999999	0	999999	38024	38024	38024	999999	38019	38019	38019	999999	38026	38026	38026	999999	38030	38030	38030	999999	38017	38017	38017	999999	38011	38011	38011	999999	38011	38011	38011	999999	38005	38005	38005	37997	38006	38006	38006	37998	38023	38023	38023	999999	38021
38022	38022	38022	38022	38023	38023	38023	38023	38022	38022	38022	38022	38019	38019	38019	38019	38005	38005	38005	38005	38008	38008	38008	38008	999999	999999	999999	0	38024	38024	38024	38024	38019	38019	38019	38019	38026	38026	38026	38026	38030	38030	38030	38030	38017	38017	38017	38017	38011	38011	38011	38011	38011	38011	38011	38011	38005	38005	38005	38005	38006	38006	38006	38006	38023	38023	38023	38023	38021
38022	38022	38014	999999	38023	38023	38015	999999	38022	38022	38014	999999	38019	38019	38011	999999	38005	37997	999999	999999	38008	38000	999999	999999	0	999999	999999	999999	38024	38024	38016	999999	38019	38019	38011	999999	38026	38026	38018	999999	38030	38030	38022	999999	38017	38017	38009	999999	38011	38011	38003	999999	38011	38011	38003	999999	38005	37997	999999	999999	38006	37998	999999	999999	38023	38023	38015	999999	38021
38011	38011	38011	38003	37996	37996	37988	999999	38003	38003	37995	999999	38008	38008	38000	999999	38021	38021	38021	38013	38006	38006	37998	999999	38024	38024	38024	38016	999999	0	999999	999999	38040	38040	999999	999999	37993	37993	37985	999999	38027	38027	38027	38019	38019	38019	38019	38011	38022	38022	38022	38014	38003	38003	37995	999999	38036	38036	999999	999999	38033	38033	999999	999999	38041	38041	999999	999999	38011
38011	38011	38011	999999	37996	37996	37996	37988	38003	38003	38003	37995	38008	38008	38008	38000	38021	38021	38021	999999	38006	38006	38006	37998	38024	38024	38024	999999	999999	999999	0	999999	38040	38040	38040	999999	37993	37993	37993	37985	38027	38027	38027	999999	38019	38019	38019	999999	38022	38022	38022	999999	38003	38003	38003	37995	38036	38036	38036	999999	38033	38033	38033	999999	38041	38041	38041	999999	38011
38011	38011	38011	38011	37996	37996	37996	37996	38003	38003	38003	38003	38008	38008	38008	38008	38021	38021	38021	38021	38006	38006	38006	38006	38024	38024	38024	38024	999999	999999	999999	0	38040	38040	38040	38040	37993	37993	37993	37993	38027	38027	38027	38027	38019	38019	38019	38019	38022	38022	38022	38022	38003	38003	38003	38003	38036	38036	38036	38036	38033	38033	38033	38033	38041	38041	38041	38041	38011
38011	38011	38003	999999	37996	37988	999999	999999	38003	37995	999999	999999	38008	38000	999999	999999	38021	38021	38013	999999	38006	37998	999999	999999	38024	38024	38016	999999	0	999999	999999	999999	38040	38040	38040	38032	37993	37985	999999	999999	38027	38027	38019	999999	38019	38019	38011	999999	38022	38022	38014	999999	38003	37995	999999	999999	38036	38036	38036	38028	38033	38033	38033	38025	38041	38041	38041	38033	38011
38049	38049	999999	999999	38036	38036	999999	999999	38030	38030	38030	38022	38024	38024	38024	38016	38009	38009	38001	999999	38025	38025	38025	38017	38019	38019	38019	38011	38040	38040	999999	999999	999999	0	999999	999999	38041	38041	999999	999999	38017	38017	38017	38009	38013	38013	38013	38005	38040	38040	999999	999999	38032	38032	999999	999999	38030	38030	38030	38022	38033	38033	999999	999999	37994	37994	37986	999999	38047
38049	38049	38049	999999	38036	38036	38036	999999	38030	38030	38030	999999	38024	38024	38024	999999	38009	38009	38009	38001	38025	38025	38025	999999	38019	38019	38019	999999	38040	38040	38040	999999	999999	999999	0	999999	38041	38041	38041	999999	38017	38017	38017	999999	38013	38013	38013	999999	38040	38040	38040	999999	38032	38032	38032	999999	38030	38030	38030	999999	38033	38033	38033	999999	37994	37994	37994	37986	38047
38049	38049	38049	38049	38036	38036	38036	38036	38030	38030	38030	38030	38024	38024	38024	38024	38009	38009	38009	38009	38025	38025	38025	38025	38019	38019	38019	38019	38040	38040	38040	38040	999999	999999	999999	0	38041	38041	38041	38041	38017	38017	38017	38017	38013	38013	38013	38013	38040	38040	38040	38040	38032	38032	38032	38032	38030	38030	38030	38030	38033	38033	38033	38033	37994	37994	37994	37994	38047
38049	38049	38049	38041	38036	38036	38036	38028	38030	38030	38022	999999	38024	38024	38016	999999	38009	38001	999999	999999	38025	38025	38017	999999	38019	38019	38011	999999	38040	38040	38040	38032	0	999999	999999	999999	38041	38041	38041	38033	38017	38017	38009	999999	38013	38013	38005	999999	38040	38040	38040	38032	38032	38032	38032	38024	38030	38030	38022	999999	38033	38033	38033	38025	37994	37986	999999	999999	38047
38015	38015	38015	38007	37995	37995	37987	999999	38002	38002	37994	999999	38007	38007	37999	999999	38022	38022	38022	38014	38008	38008	38000	999999	38026	38026	38026	38018	37993	37993	37985	999999	38041	38041	999999	999999	999999	0	999999	999999	38026	38026	38026	38018	38018	38018	38018	38010	38025	38025	38025	38017	38006	38006	37998	999999	38039	38039	999999	999999	38036	38036	999999	999999	38041	38041	999999	999999	38014
38015	38015	38015	999999	37995	37995	37995	37987	38002	38002	38002	37994	38007	38007	38007	37999	38022	38022	38022	999999	38008	38008	38008	38000	38026	38026	38026	999999	37993	37993	37993	37985	38041	38041	38041	999999	999999	999999	0	999999	38026	38026	38026	999999	38018	38018	38018	999999	38025	38025	38025	999999	38006	38006	38006	37998	38039	38039	38039	999999	38036	38036	38036	999999	38041	38041	38041	999999	38014
38015	38015	38015	38015	37995	37995	37995	37995	38002	38002	38002	38002	38007	38007	38007	38007	38022	38022	38022	38022	38008	38008	38008	38008	38026	38026	38026	38026	37993	37993	37993	37993	38041	38041	38041	38041	999999	999999	999999	0	38026	38026	38026	38026	38018	38018	38018	38018	38025	38025	38025	38025	38006	38006	38006	38006	38039	38039	38039	38039	38036	38036	38036	38036	38041	38041	38041	38041	38014
38015	38015	38007	999999	37995	37987	999999	999999	38002	37994	999999	999999	38007	37999	999999	999999	38022	38022	38014	999999	38008	38000	999999	999999	38026	38026	38018	999999	37993	37985	999999	999999	38041	38041	38041	38033	0	999999	999999	999999	38026	38026	38018	999999	38018	38018	38010	999999	38025	38025	38017	999999	38006	37998	999999	999999	38039	38039	38039	38031	38036	38036	38036	38028	38041	38041	38041	38033	38014
38045	38045	999999	999999	38020	38020	38020	38012	38013	38013	38013	38005	38009	38009	38001	999999	38014	38014	38014	38006	38021	38021	38021	38013	38030	38030	38030	38022	38027	38027	38027	38019	38017	38017	38017	38009	38026	38026	38026	38018	999999	0	999999	999999	38002	38002	37994	999999	38045	38045	999999	999999	38027	38027	38027	38019	38045	38045	999999	999999	38046	38046	999999	999999	38014	38014	38014	38006	38044
38045	38045	38045	999999	38020	38020	38020	999999	38013	38013	38013	999999	38009	38009	38009	38001	38014	38014	38014	999999	38021	38021	38021	999999	38030	38030	38030	999999	38027	38027	38027	999999	38017	38017	38017	999999	38026	38026	38026	999999	999999	999999	0	999999	38002	38002	38002	37994	38045	38045	38045	999999	38027	38027	38027	999999	38045	38045	38045	999999	38046	38046	38046	999999	38014	38014	38014	999999	38044
38045	38045	38045	38045	38020	38020	38020	38020	38013	38013	38013	38013	38009	38009	38009	38009	38014	38014	38014	38014	38021	38021	38021	38021	38030	38030	38030	38030	38027	38027	38027	38027	38017	38017	38017	38017	38026	38026	38026	38026	999999	999999	999999	0	38002	38002	38002	38002	38045	38045	38045	38045	38027	38027	38027	38027	38045	38045	38045	38045	38046	38046	38046	38046	38014	38014	38014	38014	38044
38045	38045	38045	38037	38020	38020	38012	999999	38013	38013	38005	999999	38009	38001	999999	999999	38014	38014	38006	999999	38021	38021	38013	999999	38030	38030	38022	999999	38027	38027	38019	999999	38017	38017	38009	999999	38026	38026	38018	999999	0	999999	999999	999999	38002	37994	999999	999999	38045	38045	38045	38037	38027	38027	38019	999999	38045	38045	38045	38037	38046	38046	38046	38038	38014	38014	38006	999999	38044
38033	38033	999999	999999	38013	38013	38013	38005	38006	38006	37998	999999	38001	38001	37993	999999	38002	38002	37994	999999	38008	38008	38000	999999	38017	38017	38017	38009	38019	38019	38019	38011	38013	38013	38013	38005	38018	38018	38018	38010	38002	38002	37994	999999	999999	0	999999	999999	38032	38032	999999	999999	38015	38015	38015	38007	38033	38033	999999	999999	38033	38033	999999	999999	38013	38013	38013	38005	38032
38033	38033	38033	999999	38013	38013	38013	999999	38006	38006	38006	37998	38001	38001	38001	37993	38002	38002	38002	37994	38008	38008	38008	38000	38017	38017	38017	999999	38019	38019	38019	999999	38013	38013	38013	999999	38018	38018	38018	999999	38002	38002	38002	37994	999999	999999	0	999999	38032	38032	38032	999999	38015	38015	38015	999999	38033	38033	38033	999999	38033	38033	38033	999999	38013	38013	38013	999999	38032
38033	38033	38033	38033	38013	38013	38013	38013	38006	38006	38006	38006	38001	38001	38001	38001	38002	38002	38002	38002	38008	38008	38008	38008	38017	38017	38017	38017	38019	38019	38019	38019	38013	38013	38013	38013	38018	38018	38018	38018	38002	38002	38002	38002	999999	999999	999999	0	38032	38032	38032	38032	38015	38015	38015	38015	38033	38033	38033	38033	38033	38033	38033	38033	38013	38013	38013	38013	38032
38033	38033	38033	38025	38013	38013	38005	999999	38006	37998	999999	999999	38001	37993	999999	999999	38002	37994	999999	999999	38008	38000	999999	999999	38017	38017	38009	999999	38019	38019	38011	999999	38013	38013	38005	999999	38018	38018	38010	999999	38002	37994	999999	999999	0	999999	999999	999999	38032	38032	38032	38024	38015	38015	38007	999999	38033	38033	38033	38025	38033	38033	38033	38025	38013	38013	38005	999999	38032
38006	38006	37998	999999	38025	38025	38025	38017	38028	38028	38028	38020	38028	38028	38028	38020	38024	38024	38024	38016	38014	38014	38014	38006	38011	38011	38011	38003	38022	38022	38022	38014	38040	38040	999999	999999	38025	38025	38025	38017	38045	38045	999999	999999	38032	38032	999999	999999	999999	0	999999	999999	38010	38010	38002	999999	38010	38010	38002	999999	38005	38005	37997	999999	38044	38044	999999	999999	38005
38006	38006	38006	37998	38025	38025	38025	999999	38028	38028	38028	999999	38028	38028	38028	999999	38024	38024	38024	999999	38014	38014	38014	999999	38011	38011	38011	999999	38022	38022	38022	999999	38040	38040	38040	999999	38025	38025	38025	999999	38045	38045	38045	999999	38032	38032	38032	999999	999999	999999	0	999999	38010	38010	38010	38002	38010	38010	38010	38002	38005	38005	38005	37997	38044	38044	38044	999999	38005
38006	38006	38006	38006	38025	38025	38025	38025	38028	38028	38028	38028	38028	38028	38028	38028	38024	38024	38024	38024	38014	38014	38014	38014	38011	38011	38011	38011	38022	38022	38022	38022	38040	38040	38040	38040	38025	38025	38025	38025	38045	38045	38045	38045	38032	38032	38032	38032	999999	999999	999999	0	38010	38010	38010	38010	38010	38010	38010	38010	38005	38005	38005	38005	38044	38044	38044	38044	38005
38006	37998	999999	999999	38025	38025	38017	999999	38028	38028	38020	999999	38028	38028	38020	999999	38024	38024	38016	999999	38014	38014	38006	999999	38011	38011	38003	999999	38022	38022	38014	999999	38040	38040	38040	38032	38025	38025	38017	999999	38045	38045	38045	38037	38032	38032	38032	38024	0	999999	999999	999999	38010	38002	999999	999999	38010	38002	999999	999999	38005	37997	999999	999999	38044	38044	38044	38036	38005
38007	38007	37999	999999	38005	38005	37997	999999	38007	38007	37999	999999	38008	38008	38000	999999	38012	38012	38012	38004	37996	37996	37988	999999	38011	38011	38011	38003	38003	38003	37995	999999	38032	38032	999999	999999	38006	38006	37998	999999	38027	38027	38027	38019	38015	38015	38015	38007	38010	38010	38002	999999	999999	0	999999	999999	38022	38022	38022	38014	38020	38020	38020	38012	38034	38034	999999	999999	38006
38007	38007	38007	37999	38005	38005	38005	37997	38007	38007	38007	37999	38008	38008	38008	38000	38012	38012	38012	999999	37996	37996	37996	37988	38011	38011	38011	999999	38003	38003	38003	37995	38032	38032	38032	999999	38006	38006	38006	37998	38027	38027	38027	999999	38015	38015	38015	999999	38010	38010	38010	38002	999999	999999	0	999999	38022	38022	38022	999999	38020	38020	38020	999999	38034	38034	38034	999999	38006
38007	38007	38007	38007	38005	38005	38005	38005	38007	38007	38007	38007	38008	38008	38008	38008	38012	38012	38012	38012	37996	37996	37996	37996	38011	38011	38011	38011	38003	38003	38003	38003	38032	38032	38032	38032	38006	38006	38006	38006	38027	38027	38027	38027	38015	38015	38015	38015	38010	38010	38010	38010	999999	999999	999999	0	38022	38022	38022	38022	38020	38020	38020	38020	38034	38034	38034	38034	38006
38007	37999	999999	999999	38005	37997	999999	999999	38007	37999	999999	999999	38008	38000	999999	999999	38012	38012	38004	999999	37996	37988	999999	999999	38011	38011	38003	999999	38003	37995	999999	999999	38032	38032	38032	38024	38006	37998	999999	999999	38027	38027	38019	999999	38015	38015	38007	999999	38010	38002	999999	999999	0	999999	999999	999999	38022	38022	38014	999999	38020	38020	38012	999999	38034	38034	38034	38026	38006
38026	38026	38026	38018	38037	38037	999999	999999	38037	38037	999999	999999	38034	38034	999999	999999	38020	38020	38020	38012	38021	38021	38021	38013	38005	38005	37997	999999	38036	38036	999999	999999	38030	38030	38030	38022	38039	38039	999999	999999	38045	38045	999999	999999	38033	38033	999999	999999	38010	38010	38002	999999	38022	38022	38022	38014	999999	0	999999	999999	37994	37994	37986	999999	38035	38035	999999	999999	38025
38026	38026	38026	999999	38037	38037	38037	999999	38037	38037	38037	999999	38034	38034	38034	999999	38020	38020	38020	999999	38021	38021	38021	999999	38005	38005	38005	37997	38036	38036	38036	999999	38030	38030	38030	999999	38039	38039	38039	999999	38045	38045	38045	999999	38033	38033	38033	999999	38010	38010	38010	38002	38022	38022	38022	999999	999999	999999	0	999999	37994	37994	37994	37986	38035	38035	38035	999999	38025
38026	38026	38026	38026	38037	38037	38037	38037	38037	38037	38037	38037	38034	38034	38034	38034	38020	38020	38020	38020	38021	38021	38021	38021	38005	38005	38005	38005	38036	38036	38036	38036	38030	38030	38030	38030	38039	38039	38039	38039	38045	38045	38045	38045	38033	38033	38033	38033	38010	38010	38010	38010	38022	38022	38022	38022	999999	999999	999999	0	37994	37994	37994	37994	38035	38035	38035	38035	38025
38026	38026	38018	999999	38037	38037	38037	38029	38037	38037	38037	38029	38034	38034	38034	38026	38020	38020	38012	999999	38021	38021	38013	999999	38005	37997	999999	999999	38036	38036	38036	38028	38030	38030	38022	999999	38039	38039	38039	38031	38045	38045	38045	38037	38033	38033	38033	38025	38010	38002	999999	999999	38022	38022	38014	999999	0	999999	999999	999999	37994	37986	999999	999999	38035	38035	38035	38027	38025
38022	38022	38022	38014	38035	38035	999999	999999	38036	38036	999999	999999	38034	38034	999999	999999	38022	38022	38022	38014	38020	38020	38020	38012	38006	38006	37998	999999	38033	38033	999999	999999	38033	38033	999999	999999	38036	38036	999999	999999	38046	38046	999999	999999	38033	38033	999999	999999	38005	38005	37997	999999	38020	38020	38020	38012	37994	37994	37986	999999	999999	0	999999	999999	38038	38038	999999	999999	38021
38022	38022	38022	999999	38035	38035	38035	999999	38036	38036	38036	999999	38034	38034	38034	999999	38022	38022	38022	999999	38020	38020	38020	999999	38006	38006	38006	37998	38033	38033	38033	999999	38033	38033	38033	999999	38036	38036	38036	999999	38046	38046	38046	999999	38033	38033	38033	999999	38005	38005	38005	37997	38020	38020	38020	999999	37994	37994	37994	37986	999999	999999	0	999999	38038	38038	38038	999999	38021
38022	38022	38022	38022	38035	38035	38035	38035	38036	38036	38036	38036	38034	38034	38034	38034	38022	38022	38022	38022	38020	38020	38020	38020	38006	38006	38006	38006	38033	38033	38033	38033	38033	38033	38033	38033	38036	38036	38036	38036	38046	38046	38046	38046	38033	38033	38033	38033	38005	38005	38005	38005	38020	38020	38020	38020	37994	37994	37994	37994	999999	999999	999999	0	38038	38038	38038	38038	38021
38022	38022	38014	999999	38035	38035	38035	38027	38036	38036	38036	38028	38034	38034	38034	38026	38022	38022	38014	999999	38020	38020	38012	999999	38006	37998	999999	999999	38033	38033	38033	38025	38033	38033	38033	38025	38036	38036	38036	38028	38046	38046	38046	38038	38033	38033	38033	38025	38005	37997	999999	999999	38020	38020	38012	999999	37994	37986	999999	999999	0	999999	999999	999999	38038	38038	38038	38030	38021
38051	38051	999999	999999	38036	38036	999999	999999	38030	38030	38030	38022	38024	38024	38024	38016	38011	38011	38011	38003	38027	38027	38027	38019	38023	38023	38023	38015	38041	38041	999999	999999	37994	37994	37986	999999	38041	38041	999999	999999	38014	38014	38014	38006	38013	38013	38013	38005	38044	38044	999999	999999	38034	38034	999999	999999	38035	38035	999999	999999	38038	38038	999999	999999	999999	0	999999	999999	38050
38051	38051	38051	999999	38036	38036	38036	999999	38030	38030	38030	999999	38024	38024	38024	999999	38011	38011	38011	999999	38027	38027	38027	999999	38023	38023	38023	999999	38041	38041	38041	999999	37994	37994	37994	37986	38041	38041	38041	999999	38014	38014	38014	999999	38013	38013	38013	999999	38044	38044	38044	999999	38034	38034	38034	999999	38035	38035	38035	999999	38038	38038	38038	999999	999999	999999	0	999999	38050
38051	38051	38051	38051	38036	38036	38036	38036	38030	38030	38030	38030	38024	38024	38024	38024	38011	38011	38011	38011	38027	38027	38027	38027	38023	38023	38023	38023	38041	38041	38041	38041	37994	37994	37994	37994	38041	38041	38041	38041	38014	38014	38014	38014	38013	38013	38013	38013	38044	38044	38044	38044	38034	38034	38034	38034	38035	38035	38035	38035	38038	38038	38038	38038	999999	999999	999999	0	38050
38051	38051	38051	38043	38036	38036	38036	38028	38030	38030	38022	999999	38024	38024	38016	999999	38011	38011	38003	999999	38027	38027	38019	999999	38023	38023	38015	999999	38041	38041	38041	38033	37994	37986	999999	999999	38041	38041	38041	38033	38014	38014	38006	999999	38013	38013	38005	999999	38044	38044	38044	38036	38034	38034	38034	38026	38035	38035	38035	38027	38038	38038	38038	38030	0	999999	999999	999999	38050
37990	37990	37982	999999	38017	38017	38017	38009	38022	38022	38022	38014	38024	38024	38024	38016	38028	38028	38028	38020	38013	38013	38013	38005	38021	38021	38021	38013	38011	38011	38011	38003	38047	38047	999999	999999	38014	38014	38014	38006	38044	38044	999999	999999	38032	38032	999999	999999	38005	38005	37997	999999	38006	38006	37998	999999	38025	38025	38025	38017	38021	38021	38021	38013	38050	38050	999999	999999	999999
GTSP_SET_SECTION:
1 1 2 3 4 -1
2 5 6 7 8 -1
3 9 10 11 12 -1
4 13 14 15 16 -1
5 17 18 19 20 -1
6 21 22 23 24 -1
7 25 26 27 28 -1
8 29 30 31 32 -1
9 33 34 35 36 -1
10 37 38 39 40 -1
11 41 42 43 44 -1
12 45 46 47 48 -1
13 49 50 51 52 -1
14 53 54 55 56 -1
15 57 58 59 60 -1
16 61 62 63 64 -1
17 65 66 67 68 -1
18 69 70 71 72-1
19 73 -1
EOF